benchmarks_vrp/CMT3/min_c/CMT3_0.vrp
NAME: CMT3_0
TYPE: CVRP
COMMENT: 826.14 - Cluster Nr.0
DIMENSION: 17
CAPACITY: 200
EDGE_WEIGHT_TYPE: EUC_2D
NODE_COORD_TYPE: TWOD_COORDS
NODE_COORD_SECTION: 
12 15 47
6 20 50
13 35 35
8 27 69
3 15 77
17 2 60
11 31 52
10 15 60
14 26 52
5 2 48
16 31 67
9 20 65
1 13 52
15 8 56
7 24 58
2 6 68
4 30 60
DEPOT_SECTION: 
13
-1
DEMAND_SECTION: 
10 17
12 16
17 5
1 36
9 12
14 9
4 16
15 27
7 19
5 1
3 9
16 3
13 0
11 27
8 10
6 5
2 30
EOF
