benchmarks_vrp/CMT3/min_c/CMT3_0.tour
NAME: CMT3_0 solution
TYPE: TOUR
TOUR_SECTION:
13 6 1 12 -1
13 14 7 9 10 15 5 17 2 3 8 16 4 11 -1
-1
EOF